/* Objective function */
max: +t;

/* Constraints */
+0.80999994278 pi1 +0.899999976158 pi2 +0.899999976158 pi3 +0.899999976158 pi4 +0.810261964798 pi5 -t >= 0;
+0.899999976158 pi1 +pi2 +pi3 +pi4 +pi5 -t >= 0;
+0.810172319412 pi1 +pi2 +pi3 +pi4 +pi5 -t >= 0;
+0.81011903286 pi1 +pi2 +pi3 +pi4 +pi5 -t >= 0;
+0.900000095367 pi1 +pi2 +pi3 +pi4 +pi5 -t >= 0;
+pi1 +pi2 +pi3 +pi4 +pi5 = 1;
